p cnf 40 78
e 1 2 3 4 5 6 7 8 9 10 11 12 13 14 15 16 17 18 19 20 0
a 21 0
e 22 23 24 25 26 27 28 29 30 31 32 33 34 35 36 37 38 39 40 0
-1 -2 -22 0
-1 2 22 0
1 -2 22 0
1 2 -22 0
-22 -3 -23 0
-22 3 23 0
22 -3 23 0
22 3 -23 0
-23 -4 -24 0
-23 4 24 0
23 -4 24 0
23 4 -24 0
-24 -5 -25 0
-24 5 25 0
24 -5 25 0
24 5 -25 0
-25 -6 -26 0
-25 6 26 0
25 -6 26 0
25 6 -26 0
-26 -7 -27 0
-26 7 27 0
26 -7 27 0
26 7 -27 0
-27 -8 -28 0
-27 8 28 0
27 -8 28 0
27 8 -28 0
-28 -9 -29 0
-28 9 29 0
28 -9 29 0
28 9 -29 0
-29 -10 -30 0
-29 10 30 0
29 -10 30 0
29 10 -30 0
-30 -11 -31 0
-30 11 31 0
30 -11 31 0
30 11 -31 0
-31 -12 -32 0
-31 12 32 0
31 -12 32 0
31 12 -32 0
-32 -13 -33 0
-32 13 33 0
32 -13 33 0
32 13 -33 0
-33 -14 -34 0
-33 14 34 0
33 -14 34 0
33 14 -34 0
-34 -15 -35 0
-34 15 35 0
34 -15 35 0
34 15 -35 0
-35 -16 -36 0
-35 16 36 0
35 -16 36 0
35 16 -36 0
-36 -17 -37 0
-36 17 37 0
36 -17 37 0
36 17 -37 0
-37 -18 -38 0
-37 18 38 0
37 -18 38 0
37 18 -38 0
-38 -19 -39 0
-38 19 39 0
38 -19 39 0
38 19 -39 0
-39 -20 -40 0
-39 20 40 0
39 -20 40 0
39 20 -40 0
21 40 0
-21 -40 0
